53
100
80	2
79	1
78	1
76	1
75	3
74	3
72	2
71	1
70	2
69	3
67	1
65	1
64	2
62	2
61	2
60	3
59	1
58	2
57	1
56	2
55	3
54	4
53	4
52	1
49	1
45	2
44	3
43	1
42	2
41	2
38	1
37	1
36	1
35	1
34	1
33	2
32	2
31	1
29	3
28	2
26	2
25	2
24	1
23	2
22	4
21	2
20	3
19	3
18	2
16	1
15	2
14	1
12	1
